NAME : instances/clustered-diverse-tsp/instance-36.tsp
COMMENT : No Comment
TYPE : TSP
DIMENSION: 50
EDGE_WEIGHT_TYPE : EUC_2D
NODE_COORD_SECTION
1 675 879 
2 1263 151 
3 606 782 
4 402 1807 
5 548 370 
6 288 1939 
7 282 1725 
8 574 430 
9 131 1972 
10 1519 604 
11 344 1708 
12 377 1781 
13 1566 696 
14 168 1891 
15 1276 159 
16 1979 1089 
17 1645 748 
18 110 1886 
19 278 1750 
20 352 1748 
21 613 907 
22 566 410 
23 440 1840 
24 502 752 
25 614 853 
26 1813 1143 
27 1297 152 
28 440 1805 
29 1895 1046 
30 122 1964 
31 1945 1097 
32 589 459 
33 1969 1002 
34 1950 1129 
35 1894 1055 
36 484 430 
37 347 1712 
38 425 478 
39 676 884 
40 440 447 
41 619 359 
42 1522 748 
43 1930 1162 
44 1324 230 
45 1884 1076 
46 313 1678 
47 457 1714 
48 862 1636 
49 1863 1224 
50 763 1571 
EOF
